c A SAT instance generated from a 3-CNF formula that had 14 clauses and 7 variables
p cnf 7 14
6 -7 -3 0
4 -3 -5 0
-1 -5 7 0
-3 2 -5 0
7 6 3 0
7 -3 -2 0
-5 -6 2 0
2 -4 -3 0
-3 7 -2 0
-6 7 2 0
5 -7 1 0
-4 -7 -6 0
6 -1 2 0
2 5 -1 0
